
 102   30
  10   10   10   10   10   10   10   10   10   10   10   10   10   10   10   10   10   10   10   10   10   10   10   10   10   10   10   10   10   10

   0   0   0   0   0   0   0   0   0   0   0   0   0   0   0   0   0   0   0   0   0   0   0   0   0   0   0   0   0   0   0  23 2 3 4 5 6 7 8 10 11 12 13 14 18 19 21 25 26 27 28 29 34 40 41 
   8   0   0   2   0   2   0   0   0   0   0   5   0   3   0   0   0   1   0   1   0   0   0   0   0   0   1   2   0   0   0  12 72 71 69 65 58 49 47 38 35 31 30 9 
   3   0   0   0   1   0   0   0   0   0   2   4   1   0   1   0   0   0   0   0   2   0   0   0   1   0   0   0   0   0   0  15 80 65 64 58 56 55 54 53 52 51 46 44 33 31 15 
   2   0   1   0   0   0   0   0   0   0   0   0   0   0   0   0   0   0   0   0   0   0   0   0   0   5   0   0   0   0   0  18 101 99 72 70 68 63 62 61 58 57 56 51 50 46 45 44 24 23 
   5   0   0   0   0   0   0   0   0   0   0   0   0   4   6   0   0   7   0   0   0   0   0   0   0   6   0   6   0   0   0  22 101 100 99 98 77 76 69 68 67 66 65 64 62 61 58 54 52 50 48 44 38 36 
   1   0   0   7   0   0   0   0   0   0   4   0   0   0   0   0   0   0   0   0   0   0   0   0   0   3   0   7   3   0   0  14 80 76 64 63 62 61 60 52 49 46 39 33 32 23 
   5   1   0   0   9   0   1   0   0   0   6   0   0   3   0   0   1   9   1   0   0   0   0   2   0   0   0   0   0   0   0   9 65 60 54 46 44 42 35 31 16 
   8   0   0   0   7   0   0   0   0   3   0   0   0   0   0   0   0   0   0   0   0   0   3   0   0   0   0   0   3   0   0  10 78 71 67 63 60 58 44 37 22 17 
   6   0   6   0   0   0   0   0   0   0   0   0   0   8   0   0   0   0   0   0   0   0   4   0   0   0   0   0   0   0   0  16 101 78 77 70 64 61 60 57 54 50 48 46 44 43 42 39 
  10   7   0   7   0   0   0   2   0   0   0   0   0   0   0   1   0   0   0   0   0   0   0   0   0   0   0   0   0   0   0  14 101 98 78 72 65 64 60 58 50 49 46 42 35 32 
   4   0   0   0   0   7   0   0   0   0   0   0   0   0   2   0   0   0   0   0   0   0   0   0   0   0   0   5   0   0   0  10 70 69 68 55 54 52 46 36 35 23 
   4   0   0   0   0   8   0   0   1   0   0   0   0   0   0   0   0   0   0   0   0   0   6  10   0   0   7   0   7   0   0  10 101 79 78 70 67 63 57 51 47 20 
   9   0   6   0   0   0   0   0   0   0   0   0   0   0   0   0   0   0   0   8   0   0   0   0   0  10   0   0   0   0   0  17 100 99 98 78 77 72 70 69 68 67 66 64 62 57 50 48 46 
   6   0   5   0   5   0   0   7   0   0   0   0   0   0   0   0   0   0   0   0   0   0   0   8   0   5   2   0   0   0   0  15 99 78 72 71 67 63 62 60 59 57 55 51 50 49 48 
   5   0   0   0   0   0   0  10   0   0   0   0   0   0   0   6   0   0   7   0   0   0   4   0   3   0   0   0   0   0   0  14 101 100 98 95 75 74 71 69 68 67 62 57 38 35 
   9   0   0   0   0   0   0   0   0   0   0   0   0   0   0   0   0   0   0   5   0   0   0   0   0   0   0   0   5   0   0  18 101 100 99 98 94 93 91 79 78 77 71 70 68 67 66 57 51 48 
   8   6   0   6   0   0   8   8   0   5   0   0   4   6   0   0   8   0   0   0   0   0   0   0  10   0   0   0   5   0   0  11 101 94 79 77 74 69 68 57 46 39 35 
   4   8   0   0   0   0   0   0   0   0   0   0   0   0   0   0   0   0   0   5   0   1   0   0   0   0   0   0   0   0   0  10 97 76 75 72 71 63 59 58 50 39 
   3   0   0   0   0   0   0   0   4   0   5   0   0   0   0   0   0   0   0   9   0   6   0   0   0   0   0   0   0   0   0  15 101 99 97 94 92 90 79 78 76 75 69 66 59 49 48 
   7   0   0   0   6   0   0   0   0   0   0   0   8   0   0   0   0   0   0   7   0   0   0   0   0   0   7   0   0   0   0  13 99 98 96 95 76 75 69 68 61 60 54 49 46 
   9   0   0   0   0   6   0   0   8   0   0   5   0   0   4   0   0   0   0   0   0   0   0   0   0   0   0   0   0   0   0  13 101 99 98 97 87 79 75 70 68 58 57 49 48 
   7   0   0   6   0   0   0   0   0   0   0   0   0   0   0   0   0   0   0   0   4   0   0   0   0   0   0   0   6   0   0  19 101 100 99 98 97 96 95 93 92 91 88 77 75 74 73 70 68 66 57 
   6   0   0   0   0   7   0   0   0   0   0   0   0   7   0   6   0   0   0   0   0   0   0   0   0   0   0   0   0   0   0  13 97 94 91 90 79 78 77 75 67 66 59 48 47 
   7   0   0   0   0   0   5   0   0   0   0   0   0   0   0   0   0   0   0   0   0   0   0   0   0   0   0   0   9   0   0  13 98 97 94 92 90 87 80 78 75 69 59 49 48 
   6   0   0   5   0   0   0   0   0   0   0   1   0   0   0   0   0   0   0   0   0   0  10   6   7   0   0   6   0   0   4  18 101 98 97 96 95 92 91 90 86 80 76 75 74 71 70 66 63 60 
   6   0   0   0   7   0   0   0  10   0   0   0   0   0   0   0   0   0   0   0   0   0   0   0   0   0   0   0   0   0   0  12 100 99 98 95 93 91 85 78 68 66 57 50 
   1   0   0   0   0   0   0   0   0   0   0   0   0   0   0   0   6   0   0   0   0   0   0   0   0   0   0   0   0   0   8  12 100 96 95 92 90 76 70 68 64 61 59 54 
   8   0  10   0   0   0   0   0   0   0   0  10   0   0   0   0   0   5   0   0   0   0   0   0   0   0   0   0   0   0   0  11 98 96 95 86 80 78 76 75 73 67 46 
  10   0   0   0   0   0   0   0   0   0   0   0   0   0   4   0   0   0   0   0   0   0   0   0   0   8   0   0   0   0   0  10 101 97 92 90 85 78 72 69 49 48 
   1   0   0   0   6   0   0   0   0   0   0   0   0   0   6   0   0   0   0   0   0   0   0   0   0   0   0   0   0   0   0  11 96 94 91 90 88 79 68 67 66 54 51 
   8   0   0   0   0   0   0   0   5   0   0   0   0   0   5   0   0   0   0   0   0   0   0   0   0   0   0   0   0   0   0  10 99 97 92 89 79 77 76 62 61 48 
   6  10   0   0   0   0   0   0   0   0   0   0   3   0   0   0   0   9   0   0   0   0   0   0   0   0   0   0   6   1   0  14 100 97 95 93 92 90 88 86 77 75 73 71 68 67 
   3   0   0   0   0   0   0   0   0   0  10   0   0   0   0   0   4   0   0   0   0   0   6   0   0   0   0   0   0   0   0  11 94 92 91 90 86 79 73 69 67 66 59 
  10   6   0   7   0   5   0   0   0   2   0   0   0   0   0   0   0   0   0   0   0   0   0   0   0   0   5   0   3   0   0  15 101 98 97 94 93 92 90 89 86 85 83 76 74 73 69 
   6   0   0   0   0   0   7   5   0   0   0   0   6   6   0   0   0   0   0   0   0   0   3   0   0   0   0   0   0   0   7  12 99 96 92 91 90 87 86 84 81 76 73 59 
   7   0   0   0   0   0   6   0   0   0   0   5   0   0   7   0   0   0   8   0   0   0   0   0   0   0   0   0   0   0   0  10 95 92 90 86 84 80 75 73 60 59 
  10   0   0   0   0   0   0   0   0   9   4   0   0   0   0   0   0   0   6   0   0   0   0   0   0   0   0   0   0   0   0   8 98 97 94 91 87 85 77 48 
   2   0   0   0   0   0   0   7   0   0   0   0   0   5   0   0   0   0   0   0   5  10   0   0   0   0   0   0   0   0   0  12 97 93 91 90 89 87 86 84 79 78 73 70 
   8   0   0   0   0   5   0   0   0   0   0   0   0   6   0   0   6   0   0   0   0   0   0   0   0   0   4   9   0   0   0  15 100 99 98 96 95 92 91 90 88 86 85 84 83 82 81 
   6   0   0   0   0  10   5   0   0   0   9   0   0   0   0   0   0   0   0   0   0   0   0   0   0   0   0   0   0   0   0   8 95 91 88 86 73 71 69 58 
   7   0   6   0   0   0   0   0   0   0   0   0   0   0   0   0   0   0   6   0   0   0   0   0  10   6   0   0   0   0   0   8 100 95 93 88 86 83 68 54 
   3   0   0   0   0   0   0   0   0   0   0   0   0   5   0   7   7   0   0   0   0   0   0   0   0   0   0   7   0   0   0   9 97 94 90 88 86 83 73 68 66 
   4   0   0   0   0   0   0   5   0   0   0   0   8   0   4   5   0   0   0   0   0   0   0   0   0   0   0   0   0   0   0  10 97 94 93 90 86 84 83 80 76 68 
  10   0   0   0   0   0   0   0   5   0   0   7   0   0   0   0   0   0   0   0   0   0   0   0   0   0   0   0   0   0   4   9 97 94 91 86 83 81 79 74 73 
   7   0   0   0   0   0   0   0   7   0   0   0   0   0   7   0   0   0   0   0   0   8   6   8   0   0   0   0   0   0   0   8 94 91 88 87 86 83 75 69 
   9   0   0   5   6   0   0   0   0   7   0   0   0   0   0   0   0   0   0   0   0   5   0   0   0   0   0   0   0   0   0   6 92 91 90 84 82 59 
   1   0   0   0   0   0   0   0   0   3   0   0   0   0   0   0   0   0   0   0   0   0   0   0   0   0   0   5   9   0   0   9 100 98 95 92 89 87 85 83 73 
   3   0   0   0   0   0   9   0   0   0   0   0   0   0   6   0   0   0   0   0   0   0   5   0   0   0   0   0   0   0   0   8 96 95 88 86 84 83 81 73 
   4   0   0   4   5   4   0   0   0   0   0   0   0   0   0   0   0   0   0   0   0   0   6   0   0   0   0   0   0   0   3   7 93 91 89 81 77 74 73 
   3   0   0   0   0   0   0   0   0   0   0   0   5   0   0   0   0   0   0   0   0   0   0   6   0   0   0   0   0   0   0   6 96 94 92 80 74 73 
  10   0   0   0   7   0   0   0   0   0   0   5   4   4   0   0   0   0   0   0   0   0   0   0   0   0   0   0   0   6   0   6 97 92 87 83 75 74 
   3   0   0   0   0   0   0   0   0   0   0   0   0  10   0   0   5   0   8   0   0   0   0   0   0   0   0   0   0   0   0   6 94 91 90 82 81 74 
   5   0   0   0   0   0   9   0   0   0   0   0   8   0   0   0   0   0   0   0  10   0   0   0   0   0   0   0   0   0   0   6 92 91 88 86 83 74 
  10   0   0   0   0   0   0   0   0   0   0   0   0   0   6   6   4   0   5   0   0   0  10   0   0   5   0   0   0   0   0   5 89 87 81 74 73 
   4   0   0   0   0   0   0   0   0   0   0   0   0   0   0   0   0   0   0   0   0   0   0   0   0   0   0   0   0   0   0   5 88 86 81 74 73 
   3   0   0   0   0   0   0   0   0   0   0   0   0   6   0   0   6   0   0   0   0   6   4   0   0   0   0   6   0   0   0   5 96 85 84 83 71 
   8   0   0   0   0   0   0   6   0   0   0   0   0   0   0   0   0   0   0   2  10   0   0   0   0   0   0   0   0   0   0   5 90 86 83 81 76 
   7   5   0   0   0   6   0   0   0   0   0   7   0   0   0   0   0   0   0   0   0   0   5   0   0   0   0   0   0   0   0   5 90 85 83 81 74 
  10   0   0   0   0   0   0   0   0   0   5   0   0   4   0   0   6   0   0   0   0   0   0   0   0   0  10   4   0   0   0   5 93 89 88 85 83 
   2   0   0  10   0   0   0   0   0   0   5   8   0   0   9   0   0   0   0   0   0   0   0   0   0   0   8   0   0   0   0   5 89 87 83 82 81 
  10   0   0   0   0  10   0   0   0   0   0   0   0   0   0   0   0   0   0   0   0   0   0   0   0   0   0   5   0   0   0   5 94 93 88 86 85 
   5   0   0   0   0   0   0   0   0   5   0   0   0   0   0   0   0   0   0   0  10   0  10   0   0   0   0   0   4   0   0   5 94 87 86 83 81 
   2   0   0   0   0   0   0   0   0   8   0   0   0   0   0   0   0   0   0   0   0   8   0   0   0   6   0   0   0   0   0   5 94 88 87 84 83 
   3   0   0   6   0   0   0   0   0   0   0   0   0  10   0   0   0   0   0   0   4   0   0  10   0   0  10   0   9   0   0   3 89 75 73 
   9   0   0   0   0   0   0   0   0   0   0   0   0   0  10   0   0   0   0   0   0   0   0   0   0   0   7   0   5   0   0   4 95 94 87 81 
   1   0   0   0   4   0   0   0   0  10   0   0   0   0   0   0   0   0   0   0   0   0   0   0   0   0   0   0   0   0   0   3 87 84 82 
   8   0   0   0   0   0   0   0   0   0   0   0   0   0   0   0   0   0   0   0   6   0   0   0   0   0   0   0   0   0   0   3 87 83 81 
   8   0   6   0   0   6   0   0   0   5   0   0   0   0   0   0   0   0   8   0   0   0   0   0   0   0   6   0   0   0   0   2 89 81 
   5   0   0   0   0   0   0   0   6   0   0   0   0   6   0   0   0   0   0   0   0   0   0   0   0   4   0   0  10   0   0   2 82 81 
   2   0   0   0   0   0   0   0   0   8   5   0   0   0   0   0   0   0   6   0   3   0   0   3   0   0   0   0   0   0   0   2 85 81 
   5   0   0   0   0   0   0   0   0   0   9   0   8   0   0   0   0   0   0   9   0   0   0   0   5   0   0   0   0   0   0   2 82 81 
   9   0   0   5   0   0   0   0   0   0   0   0   8   0   0   0   0   0   0   0   0   0   0   0   0   0   0   0   0   0   0   2 88 83 
   6   0   0   0   0   5   3   0   0   0   0   0   0   0   0   0   9   0   0   0   0   0   0   0   0   0   0  10   0   0   0   1 82 
   1   0   0   0   0   0   0   0   0   0   0   7   8   0   0   0   9   6   0   0   0   0   0   0   0   0   0   0   0   0   0   1 84 
   1   0   0   0   0   0   0   0   0   0   0   0   0   0   0   0   5   0   4   0   0   0   0   0   0   0   0   0   0   9   0   1 85 
   5   0  10   0   0   0   0   0   0   0   0   0   0   0   8   0   0   0   8   7   0   0   5   5   0   0   0   0   0   0   0   1 82 
   8   0   0   8   0   0   0   0   0   0   0   0   0   0   0   0   0   0   0  10   0   0   5   0   0   0   5   0   0   0   0   1 84 
   8   0   0   0   0   0   0   0   0  10   0   0   0   0   0   0   9   0   6   0   0   0   0   0   0   4   0   0   0   0  10   1 83 
   2   0   0   0   0   0   0   1   0   0   0   0   0   0   0   7   5   0   0   0   0   0   0   0   0   0   0   0   0   0   0   1 82 
   7   4   0   0   0   0   0   0   0   7   0   0   0   5   0   0   0   0   0   3   0   0   8   0   0   0   0   0   6   0   0   1 81 
   7   0   0   0   0   0   0   0   6   0   6   0   0   0   0   0   0   0   0   0   0   0   0   2   0   0   0   0   0   0   0   1 102
   5   0   5   0   0   0   0   0   0   0   0   6   5   0   0   0   0   6   0   4   0   0   0   0   6   4   6   0   0   0   0   1 102
   1   0   0   0   0   0   0   0   0   0   0   0   0   0   0   0   0   0   5   0   0   4   0   0   0   0   5   0   0   0   0   1 102
   7   0   0   0   8   0   6   0   0   0   0   0   0   0   5   0   0   0   0   0   9   0   0   0   0   0   0   0   0   0   0   1 102
   3   0   0   4   0   0   0   0   0   0   0   0   0   0   0   7   0   0   0   0   0   0   0   5   0   0   0   0   0   0   0   1 102
   3   0   0   0   0   0   0   0   0   0   0   8   0   0   0   0   0   0   0   0   0   0   0   7   0   0   0   0   0   0   0   1 102
   4   0   0   0   0   0   0   0   8   0   0   3   0   0   0  10   0   0   0   0   0   0   0   0   0   0   0   0   0   0   0   1 102
   9   0   0   0   0   0   0   0   0   2   0   0   0   0   0   4   0   0   0   0   0   7   0   0   0   0   0   0   0   0   0   1 102
   7   0   7   0   0   0   0   0   0   6   0   0   0   0   9   0   0   6   0   0   0   0   0   0   0   0   0   0   0   8   0   1 102
  10   0   6   0   0   0   0   0   5   0   0   0   0   0   0   0   0   0   0   9   0   0   0   0   0   0   0   0   0   0   0   1 102
   2   0   0   0   0   0   0   0   0   0   0   0   0   0  10   0   0   0   0   0   3   0   0   0   0   8   0   0   0   0   0   1 102
   4   0   4   9   0   0   0   0   0   0   0   0   0   0   0   9   0   0   0   0   0   0   0   0   0  10   0   0   0   0   0   1 102
   3   0   0   0   0   0   0   0   0   0   8   0   0   0   0   0   0   6   0   0   0  10   0   0   0   0   0   0   0   0   0   1 102
   9   0   0   0   5   0   0   0   0   0   0   0   0   0   0   0   0   0   0   0   0   0   0   0   0   0   6   6   0   0   0   1 102
   3   7   0   7   0   0   0   9   0   0   0   0   0   0   5   0   0   0   0   0   0   0   0   6   0   0   7   0   0   0   0   1 102
   5   0   0   4   0   3   7   0   0   0   0   0   8   0   0   0   0   5   0   0   0   0   0   0   0   0   0   0   0   0   0   1 102
   4   0   0   0   8   0   0   7   0   0   0   5   0  10   0   0   0   0   0   0   0   4   0   0   0   0   0   0   0   0   0   1 102
  10   0   0   0   0   0   0   5   0   0   0   0   0   0   0   0   0   0   0   0   0   3   0   0   0   0   0   0   0   0   0   1 102
   2   0   0   0   0   0   0   0   0   0   0  10   0   0   0   0   0   0   0   5   0   0   0   0   0   0   0   0   0   0   0   1 102
   5   0   0   0   0   0   0   0   0   0   0   0   0   0   0   0   0   0   0   0   0   0  10   0   0   0   0   0   0   0   0   1 102
   2   0   0   0   0   0   0   0   7   0   0   0   0   0   0   4   0   0   0   0   0   0   4   0   0   0   0   0   0   0   0   1 102
   0   0   0   0   0   0   0   0   0   0   0   0   0   0   0   0   0   0   0   0   0   0   0   0   0   0   0   0   0   0   0   0 
